3328.82 0
0 85 118 48 161 29 68 0
0 86 49 190 102 164 150 39 0
0 112 59 152 178 23 154 159 0
0 196 120 182 47 125 84 141 171 0
0 87 94 183 174 31 160 128 81 0
0 147 5 13 72 67 134 66 181 0
0 180 133 93 113 19 108 32 188 79 0
0 105 198 155 170 195 50 65 30 114 95 0
0 156 167 107 14 15 197 4 130 12 184 111 0
0 58 151 192 44 16 173 166 62 176 135 54 149 0
0 26 177 158 9 189 148 194 106 45 100 22 75 0
0 27 28 116 169 103 162 127 10 123 82 38 43 144 0
0 89 92 191 168 175 71 34 157 77 76 138 179 187 139 53 0
0 96 97 172 142 61 83 18 143 11 131 132 33 3 163 109 186 21 0
0 40 73 145 115 137 99 104 98 119 17 8 124 64 63 20 122 51 185 1 88 153 52 0
0 69 101 70 126 90 136 35 78 129 121 80 24 165 25 55 110 56 74 41 2 57 42 140 91 193 37 117 6 60 199 46 36 7 146 0